
GUB cover cuts applied:  3
Clique cuts applied:  26
Cover cuts applied:  139
Flow cuts applied:  2
Mixed integer rounding cuts applied:  12
Zero-half cuts applied:  148
Lift and project cuts applied:  2
Gomory fractional cuts applied:  7

Root node processing (before b&c):
  Real time             =    1.72 sec. (1484.29 ticks)
Parallel b&c, 4 threads:
  Real time             =   14.40 sec. (11885.21 ticks)
  Sync time (average)   =    0.72 sec.
  Wait time (average)   =    0.00 sec.
                          ------------
Total (root+branch&cut) =   16.12 sec. (13369.50 ticks)
Version identifier: 12.10.0.0 | 2019-11-26 | 843d4de
CPXPARAM_MIP_Interval                            10
CPXPARAM_MIP_Tolerances_AbsMIPGap                0.98999999999999999
Tried aggregator 2 times.
MIP Presolve eliminated 14241 rows and 14281 columns.
MIP Presolve modified 1 coefficients.
Aggregator did 67 substitutions.
Reduced MIP has 2492 rows, 1927 columns, and 7686 nonzeros.
Reduced MIP has 1927 binaries, 0 generals, 0 SOSs, and 0 indicators.
Presolve time = 0.03 sec. (21.78 ticks)
Probing fixed 27 vars, tightened 0 bounds.
Probing changed sense of 58 constraints.
Probing time = 0.01 sec. (9.31 ticks)
Tried aggregator 2 times.
MIP Presolve eliminated 297 rows and 221 columns.
Aggregator did 43 substitutions.
Reduced MIP has 2152 rows, 1663 columns, and 6618 nonzeros.
Reduced MIP has 1663 binaries, 0 generals, 0 SOSs, and 0 indicators.
Presolve time = 0.01 sec. (8.59 ticks)
Probing time = 0.00 sec. (4.50 ticks)
Tried aggregator 2 times.
Detecting symmetries...
MIP Presolve eliminated 101 rows and 81 columns.
Aggregator did 1 substitutions.
Reduced MIP has 2050 rows, 1581 columns, and 6293 nonzeros.
Reduced MIP has 1581 binaries, 0 generals, 0 SOSs, and 0 indicators.
Presolve time = 0.01 sec. (9.33 ticks)
Probing time = 0.00 sec. (2.55 ticks)
Clique table members: 1542.
MIP emphasis: balance optimality and feasibility.
MIP search method: dynamic search.
Parallel mode: deterministic, using up to 4 threads.
Root relaxation solution time = 0.01 sec. (10.79 ticks)

        Nodes                                         Cuts/
   Node  Left     Objective  IInf  Best Integer    Best Bound    ItCnt     Gap

      0     0       16.8333    87                     16.8333      317         
      0     0       16.5000    87                    Cuts: 95      504         
      0     0       16.0000    87                   Cuts: 105      813         
      0     0       15.8250    87                    Cuts: 73     1228         
*     0+    0                            9.0000       15.8250            75.83%
      0     0       15.5833    87        9.0000     Cuts: 197     1511   73.15%
      0     0       15.5833    87        9.0000     Cuts: 114     1787   73.15%
Detecting symmetries...
*     0+    0                           14.0000       15.5833            11.31%
      0     0       15.5556    87       14.0000      Cuts: 24     1956   11.11%
      0     0       15.5556    87       14.0000     Cuts: 145     2065   11.11%
      0     0       15.5556    87       14.0000     Cuts: 132     2180   11.11%
Detecting symmetries...
      0     2       15.5556   169       14.0000       15.5556     2180   11.11%
Elapsed time = 0.57 sec. (501.35 ticks, tree = 0.02 MB, solutions = 2)
     10     9        cutoff             14.0000       15.5556     3043   11.11%
     20    13    infeasible             14.0000       15.5556     4087   11.11%
     30    18       15.2833   272       14.0000       15.5556     4937   11.11%
     40    22        cutoff             14.0000       15.5556     6958   11.11%
     50    26       15.1250   240       14.0000       15.5556     8821   11.11%
     60    25       15.3750   333       14.0000       15.5556     9007   11.11%
     70    29       15.3037   506       14.0000       15.5556     9879   11.11%
     80    32       15.1111   356       14.0000       15.4203    10121   10.14%
     90    29    infeasible             14.0000       15.4203    10657   10.14%
    100    31       15.2917   346       14.0000       15.3935    10984    9.95%
Elapsed time = 0.75 sec. (666.50 ticks, tree = 0.09 MB, solutions = 2)
    110    40       15.1250   276       14.0000       15.3611    12515    9.72%
    120    36        cutoff             14.0000       15.3611    14236    9.72%
    130    36        cutoff             14.0000       15.2593    14686    8.99%
    140    31        cutoff             14.0000       15.2500    16738    8.93%
    150    37        cutoff             14.0000       15.2292    15883    8.78%
    160    25        cutoff             14.0000       15.2222    17575    8.73%
    170    26        cutoff             14.0000       15.2222    17440    8.73%
    180     6        cutoff             14.0000       15.1667    19504    8.33%
the number of Nodes = 186
